Data path: /scratch/opt/lxu/CFLG/benchmarks/tree_A
Instance: treeA.200.30
Result path: /scratch/opt/lxu/CFLG/results/tree_A
Solver: Gurobi
Time limit: 7200
Formulation: LEFPAD
Cover: Large
julia --project=. src/main.jl /scratch/opt/lxu/CFLG/benchmarks/tree_A treeA.200.30 /scratch/opt/lxu/CFLG/results/tree_A Gurobi 7200 LEFPAD Large
The latest version of Julia in the `release` channel is 1.11.5+0.x64.linux.gnu. You currently have `1.11.4+0.x64.linux.gnu` installed. Run:

  juliaup update

in your terminal shell to install Julia 1.11.5+0.x64.linux.gnu and update the `release` channel to that version.
/scratch/opt/lxu/CFLG/benchmarks/tree_A Gurobi 7200.0 /scratch/opt/lxu/CFLG/results/tree_A treeA.200.30 LEFPAD Large
/scratch/opt/lxu/CFLG/benchmarks/tree_A/treeA.200.30

 read graph
data loaded

problem_graph/original graph: node: 200/200 edge: 229/229 dlt: 3.0113703010947375 break_avg_len: 1.5056851505473687 break_max_len: 1.995483602652346Vbar/V, Ebar/E(117, 200, 146, 229)
(Dict{Int64, Bool}(56 => 1, 81 => 0, 110 => 1, 195 => 1, 180 => 1, 187 => 1, 9 => 1, 189 => 1, 164 => 1, 138 => 1, 109 => 1, 64 => 1, 29 => 1, 161 => 1, 57 => 1, 70 => 1, 63 => 1, 88 => 1, 163 => 1, 192 => 0, 150 => 1, 72 => 1, 12 => 1, 24 => 0, 184 => 0, 17 => 1, 92 => 0, 41 => 1, 175 => 1, 190 => 1, 36 => 0, 68 => 1, 98 => 1, 130 => 1, 118 => 1, 51 => 0, 7 => 1, 108 => 1, 172 => 0, 155 => 1, 76 => 1, 40 => 1, 93 => 1, 59 => 0, 42 => 1, 144 => 0), Dict(56 => 1.535180269138006, 81 => 0.14006639743963367, 110 => 1.054119401353705, 195 => 2.6944956040106436, 180 => 2.8372454265026263, 187 => 1.9481146344570697, 9 => 1.8825970945401245, 189 => 1.4467754583279193, 164 => 1.9691497489367669, 138 => 1.144135631414155, 109 => 1.1074894842080938, 64 => 1.1243605326281876, 29 => 1.0324275774904037, 161 => 1.024531852576899, 57 => 2.2909724108625347, 70 => 1.339714257913604, 63 => 1.237210496535619, 88 => 1.4970066593051496, 163 => 2.557051505982328, 192 => 2.068995025127873, 150 => 1.9472005667119534, 72 => 1.5671625972042724, 12 => 2.882400096120789, 24 => 0.5797902096929497, 184 => 0.6051981349817073, 17 => 1.7013804439105666, 92 => 0.17506258715645373, 41 => 1.8895533724341065, 175 => 1.5348227028838015, 190 => 1.4900439235312457, 36 => 1.3425957494874075, 68 => 1.3131300535481591, 98 => 1.3470030554077106, 130 => 1.8795273481897858, 118 => 2.8564117184801687, 51 => 0.33839928782575157, 7 => 1.5842201300926744, 108 => 2.7213494060094403, 172 => 2.2204454210339146, 155 => 1.8796634204124234, 76 => 1.3576944127182102, 40 => 1.641157230029526, 93 => 1.7826550757476258, 59 => 1.907380498372459, 42 => 2.9968987041936552, 144 => 0.055837284002938414))Set parameter TokenServer to value "solice01.zib.de"
Set parameter Threads to value 1
Set parameter OutputFlag to value 1
Gurobi Optimizer version 12.0.1 build v12.0.1rc0 (linux64 - "Debian GNU/Linux 12 (bookworm)")

CPU model: Intel(R) Xeon(R) Gold 5122 CPU @ 3.60GHz, instruction set [SSE2|AVX|AVX2|AVX512]
Thread count: 8 physical cores, 16 logical processors, using up to 1 threads

Non-default parameters:
Threads  1

Optimize a model with 355 rows, 576 columns and 960 nonzeros
Model fingerprint: 0x7cdb2903
Coefficient statistics:
  Matrix range     [1e+00, 1e+00]
  Objective range  [1e+00, 1e+00]
  Bounds range     [1e+00, 1e+00]
  RHS range        [1e+00, 1e+00]
Presolve removed 355 rows and 576 columns
Presolve time: 0.00s
Presolve: All rows and columns removed
Iteration    Objective       Primal Inf.    Dual Inf.      Time
       0    4.6000000e+01   0.000000e+00   0.000000e+00      0s

Solved in 0 iterations and 0.00 seconds (0.00 work units)
Optimal objective  4.600000000e+01

User-callback calls 35, time in user-callback 0.01 sec
elapsed CPU time: 1.82401 seconds
Set parameter TokenServer to value "solice01.zib.de"
Set parameter Threads to value 1
Set parameter OutputFlag to value 1
Set parameter MIPGap to value 0.0001
Set parameter TimeLimit to value 7198.17599

 more cuts: false 3.0113703010947375 false
is_attach:trueformulation:LEFPAD0 192 0

 model loaded

Min ye[1] + ye[2] + ye[3] + ye[4] + ye[5] + ye[6] + ye[7] + ye[8] + ye[9] + ye[10] + ye[11] + ye[12] + ye[13] + ye[14] + ye[15] + ye[16] + ye[17] + ye[18] + ye[19] + ye[20] + ye[21] + ye[22] + ye[23] + ye[24] + ye[25] + ye[26] + ye[27] + ye[28] + ye[29] + ye[30] + [[...249 terms omitted...]] + yv[134] + yv[135] + yv[136] + yv[137] + yv[138] + yv[139] + yv[140] + yv[141] + yv[142] + yv[143] + yv[144] + yv[145] + yv[146] + yv[147] + yv[148] + yv[149] + yv[150] + yv[151] + yv[152] + yv[153] + yv[154] + yv[155] + yv[156] + yv[157] + yv[158] + yv[159] + yv[160] + yv[161] + yv[162] + yv[163] + 11
Subject to
 q[1,a] ≥ 0
 q[2,a] ≥ 0
 q[3,a] ≥ 0
 q[4,a] ≥ 0
 q[5,a] ≥ 0
 q[6,a] ≥ 0
 q[7,a] ≥ 0
 q[8,a] ≥ 0
 q[9,a] ≥ 0
 q[10,a] ≥ 0
 q[11,a] ≥ 0
 q[12,a] ≥ 0
 q[13,a] ≥ 0
 q[14,a] ≥ 0
 q[15,a] ≥ 0
 q[16,a] ≥ 0
 q[17,a] ≥ 0
 q[18,a] ≥ 0
 q[19,a] ≥ 0
 q[20,a] ≥ 0
 q[21,a] ≥ 0
 q[22,a] ≥ 0
 q[23,a] ≥ 0
 q[24,a] ≥ 0
 q[25,a] ≥ 0
 q[26,a] ≥ 0
 q[27,a] ≥ 0
 q[28,a] ≥ 0
 q[29,a] ≥ 0
 q[30,a] ≥ 0
 q[31,a] ≥ 0
 q[32,a] ≥ 0
 q[33,a] ≥ 0
 q[34,a] ≥ 0
 q[35,a] ≥ 0
 q[36,a] ≥ 0
 q[37,a] ≥ 0
 q[38,a] ≥ 0
 q[39,a] ≥ 0
 q[40,a] ≥ 0
 q[41,a] ≥ 0
 q[42,a] ≥ 0
 q[43,a] ≥ 0
 q[44,a] ≥ 0
 q[45,a] ≥ 0
 q[46,a] ≥ 0
 q[47,a] ≥ 0
 q[48,a] ≥ 0
 q[49,a] ≥ 0
 q[50,a] ≥ 0
[[...15406 constraints skipped...]]
 ye[189] = 0
 ye[190] = 1
 ye[191] = 0
 ye[192] = 0
 q[147,a] = 0
 q[148,a] = 0
 q[149,a] = 0
 q[150,a] = 0
 q[151,a] = 0
 q[152,a] = 0
 q[153,a] = 0
 q[154,a] = 2.8363077139382837
 q[155,a] = 0
 q[156,a] = 1.66877455160733
 q[157,a] = 0
 q[158,a] = 0
 q[159,a] = 0
 q[160,a] = 0
 q[161,a] = 0
 q[162,a] = 0
 q[163,a] = 0.7909248800608228
 q[164,a] = 0
 q[165,a] = 0
 q[166,a] = 1.1039898027222785
 q[167,a] = 0
 q[168,a] = 2.955533017091799
 q[169,a] = 2.871303903655104
 q[170,a] = 0
 q[171,a] = 0
 q[172,a] = 0
 q[173,a] = 0
 q[174,a] = 0
 q[175,a] = 0
 q[176,a] = 0
 q[177,a] = 0
 q[178,a] = 0
 q[179,a] = 0
 q[180,a] = 0
 q[181,a] = 0
 q[182,a] = 0
 q[183,a] = 0.9423752759668647
 q[184,a] = 0
 q[185,a] = 2.4315800914017878
 q[186,a] = 0
 q[187,a] = 2.40617216611303
 q[188,a] = 0
 q[189,a] = 0
 q[190,a] = 2.672971013268986
 q[191,a] = 0
 q[192,a] = 0
Gurobi Optimizer version 12.0.1 build v12.0.1rc0 (linux64 - "Debian GNU/Linux 12 (bookworm)")

CPU model: Intel(R) Xeon(R) Gold 5122 CPU @ 3.60GHz, instruction set [SSE2|AVX|AVX2|AVX512]
Thread count: 8 physical cores, 16 logical processors, using up to 1 threads

Non-default parameters:
TimeLimit  7198.17599
Threads  1

Optimize a model with 7594 rows, 5329 columns and 21324 nonzeros
Model fingerprint: 0x8a461995
Variable types: 2583 continuous, 2746 integer (2746 binary)
Coefficient statistics:
  Matrix range     [2e-03, 3e+00]
  Objective range  [1e+00, 1e+00]
  Bounds range     [8e-01, 3e+00]
  RHS range        [1e-06, 3e+00]
Presolve removed 3324 rows and 1946 columns
Presolve time: 0.09s
Presolved: 4270 rows, 3383 columns, 13612 nonzeros
Variable types: 1717 continuous, 1666 integer (1666 binary)
Found heuristic solution: objective 134.0000000
Found heuristic solution: objective 103.0000000

Root relaxation: objective 2.554403e+01, 2780 iterations, 0.06 seconds (0.07 work units)

    Nodes    |    Current Node    |     Objective Bounds      |     Work
 Expl Unexpl |  Obj  Depth IntInf | Incumbent    BestBd   Gap | It/Node Time

     0     0   25.54403    0  424  103.00000   25.54403  75.2%     -    0s
     0     0   25.88828    0  420  103.00000   25.88828  74.9%     -    0s
     0     0   25.89030    0  422  103.00000   25.89030  74.9%     -    0s
H    0     0                      99.0000000   25.89030  73.8%     -    0s
H    0     0                      67.0000000   25.89030  61.4%     -    0s
H    0     0                      66.0000000   25.89030  60.8%     -    0s
     0     0   31.02294    0  533   66.00000   31.02294  53.0%     -    0s
     0     0   31.13975    0  501   66.00000   31.13975  52.8%     -    0s
     0     0   31.20373    0  514   66.00000   31.20373  52.7%     -    0s
H    0     0                      62.0000000   31.21660  49.7%     -    0s
     0     0   31.22140    0  525   62.00000   31.22140  49.6%     -    0s
     0     0   31.22192    0  528   62.00000   31.22192  49.6%     -    0s
     0     0   32.49345    0  559   62.00000   32.49345  47.6%     -    0s
     0     0   32.49873    0  560   62.00000   32.49873  47.6%     -    0s
     0     0   32.49888    0  551   62.00000   32.49888  47.6%     -    0s
     0     0   32.55461    0  534   62.00000   32.55461  47.5%     -    0s
     0     0   32.56955    0  537   62.00000   32.56955  47.5%     -    0s
     0     0   32.57059    0  531   62.00000   32.57059  47.5%     -    0s
     0     0   35.07688    0  448   62.00000   35.07688  43.4%     -    1s
     0     0   35.10479    0  452   62.00000   35.10479  43.4%     -    1s
     0     0   35.16042    0  467   62.00000   35.16042  43.3%     -    1s
     0     0   35.17994    0  499   62.00000   35.17994  43.3%     -    1s
     0     0   35.18928    0  496   62.00000   35.18928  43.2%     -    1s
     0     0   35.18928    0  483   62.00000   35.18928  43.2%     -    1s
     0     0   36.25824    0  464   62.00000   36.25824  41.5%     -    1s
     0     0   36.26966    0  473   62.00000   36.26966  41.5%     -    1s
     0     0   36.27164    0  445   62.00000   36.27164  41.5%     -    1s
     0     0   36.33763    0  408   62.00000   36.33763  41.4%     -    1s
     0     0   36.33965    0  443   62.00000   36.33965  41.4%     -    1s
     0     0   36.37692    0  470   62.00000   36.37692  41.3%     -    1s
H    0     0                      59.0000000   36.37692  38.3%     -    1s
     0     0   36.38160    0  476   59.00000   36.38160  38.3%     -    1s
     0     0   36.38219    0  472   59.00000   36.38219  38.3%     -    1s
     0     0   36.45168    0  501   59.00000   36.45168  38.2%     -    1s
H    0     0                      57.0000000   36.46171  36.0%     -    1s
H    0     0                      56.0000000   36.46171  34.9%     -    1s
     0     0   36.47009    0  485   56.00000   36.47009  34.9%     -    1s
     0     0   36.47068    0  477   56.00000   36.47068  34.9%     -    1s
     0     0   36.47604    0  524   56.00000   36.47604  34.9%     -    1s
     0     0   36.47874    0  516   56.00000   36.47874  34.9%     -    1s
     0     0   36.47932    0  526   56.00000   36.47932  34.9%     -    1s
     0     0   36.47936    0  465   56.00000   36.47936  34.9%     -    2s
H    0     0                      55.0000000   36.47951  33.7%     -    2s
H    0     0                      54.0000000   36.47951  32.4%     -    2s
H    0     0                      53.0000000   36.47951  31.2%     -    2s
H    0     0                      51.0000000   36.47951  28.5%     -    2s
     0     2   36.48133    0  454   51.00000   36.48133  28.5%     -    2s
H   26    24                      50.0000000   36.49067  27.0%   211    2s
H  104    92                      49.0000000   36.49067  25.5%   107    3s
H  104    92                      48.0000000   36.49067  24.0%   107    3s
H  104    92                      47.0000000   36.49067  22.4%   107    3s
H  130   105                      46.0000000   36.49516  20.7%   103    3s
   372   303   39.73390   19  272   46.00000   36.58098  20.5%  74.6    5s
   608   480   41.35353   37  214   46.00000   40.08333  12.9%  70.4   10s
H  611   457                      44.0000000   41.00000  6.82%  70.0   11s
H  613   435                      43.0000000   41.00000  4.65%  69.8   11s
H  620   417                      42.0000000   41.00000  2.38%  69.0   11s
H  622   396                      41.0000000   41.00000  0.00%  68.8   11s

Cutting planes:
  Gomory: 15
  Lift-and-project: 9
  Cover: 20
  Implied bound: 50
  Clique: 1
  MIR: 67
  Mixing: 1
  Flow cover: 88
  GUB cover: 36
  Zero half: 38
  RLT: 51
  Relax-and-lift: 13
  BQP: 36

Explored 622 nodes (101265 simplex iterations) in 11.66 seconds (8.90 work units)
Thread count was 1 (of 16 available processors)

Solution count 10: 41 42 43 ... 51

Optimal solution found (tolerance 1.00e-04)
Warning: max constraint violation (2.4970e-06) exceeds tolerance
Best objective 4.100000000000e+01, best bound 4.100000000000e+01, gap 0.0000%

User-callback calls 5606, time in user-callback 0.01 sec

 sepatime0 0 0
41.0Stat(MathOptInterface.OPTIMAL, 41.0, 41.0, 0.0, 0.0, 1.82401, 11.660215854644775, 622, Main.CFLG.LEFPAD, "", #undef)
